p cnf 50 120
-14 46 -43 0
-15 -50 -34 0
-27 31 -44 0
9 2 -24 0
11 43 35 0
7 -10 1 0
28 -12 -50 0
35 37 12 0
24 4 5 0
22 -23 4 0
-46 8 5 0
45 -7 -34 0
3 -6 36 0
42 2 -19 0
-39 -19 48 0
-33 -45 -38 0
-41 -35 44 0
-16 -24 26 0
3 -32 13 0
-27 -1 24 0
5 45 -37 0
42 5 10 0
-25 -32 -37 0
-13 49 -6 0
-24 -28 46 0
41 -16 19 0
8 -33 38 0
-9 16 -2 0
4 -12 2 0
-16 -41 -6 0
30 16 -42 0
-48 -5 -42 0
-43 -8 25 0
34 -9 23 0
-28 -33 -15 0
-21 -3 -6 0
-49 40 -11 0
26 -34 24 0
-38 5 -30 0
-20 19 -46 0
47 -28 27 0
-46 45 -48 0
-8 -23 -17 0
-10 26 1 0
32 9 7 0
-24 -47 43 0
-38 9 49 0
-42 44 9 0
24 22 -5 0
9 21 -34 0
13 -30 42 0
38 44 37 0
-49 -1 -45 0
-33 38 41 0
-9 35 -5 0
22 20 13 0
-28 7 -31 0
-16 -23 28 0
15 12 -24 0
30 13 45 0
34 -23 19 0
27 20 48 0
-3 45 17 0
-16 5 34 0
-32 -48 -44 0
26 42 27 0
49 9 20 0
25 -2 23 0
26 -15 -12 0
23 30 33 0
-18 -30 -49 0
43 20 -30 0
-32 -1 -39 0
-17 -2 29 0
-40 -16 42 0
31 -23 -11 0
-33 -48 11 0
-19 1 -47 0
27 1 -36 0
-8 -11 -46 0
-1 -6 -24 0
28 -48 29 0
-23 -34 -35 0
22 -27 -17 0
20 8 48 0
41 40 -36 0
10 1 -35 0
15 -22 -20 0
-4 -41 7 0
50 28 41 0
24 -29 50 0
-38 -21 25 0
36 34 31 0
-16 49 34 0
-46 50 5 0
34 -37 -5 0
35 18 6 0
-18 27 50 0
-27 -17 -49 0
15 5 -27 0
x -5 -6 7 -8 -9 11 -12 -14 15 18 -21 -23 -25 -27 30 -34 35 -40 -43 -46 -50 0
x 1 4 6 -9 -14 15 16 17 -18 19 -20 21 22 -23 -27 30 31 33 -39 44 -48 -49 0
x 1 2 3 4 5 6 -7 -8 -10 -14 21 -22 23 -24 25 26 -28 29 31 35 -36 -39 -41 42 -47 -50 0
x 3 -4 5 8 9 12 16 -17 18 19 21 -22 25 26 -27 -29 31 32 -35 -38 39 -41 42 -45 0
x 1 -4 -6 -13 -14 15 16 17 -20 22 23 24 -26 29 -31 -33 37 39 40 42 -44 -46 47 49 0
x -1 3 7 -9 10 13 14 18 -20 21 -22 -25 27 30 31 33 35 -36 37 38 39 -40 41 42 -45 -46 47 -48 -49 -50 0
x 1 -4 5 -7 -8 10 -11 -12 -13 -15 -16 19 -20 -21 28 29 -31 32 33 -34 37 38 40 41 42 45 46 -50 0
x 3 -4 5 -7 8 -9 -10 11 -12 15 -20 -26 -27 28 -29 -30 33 36 40 -41 -42 48 0
x 1 -2 -3 4 6 9 -10 11 -16 22 24 25 26 -27 -28 29 -30 32 33 -35 -37 -39 -40 -43 44 -46 47 -48 50 0
x -1 4 7 -8 -9 -11 12 -13 15 -20 -22 26 -27 28 32 33 34 35 -39 40 -41 -48 49 0
x 1 -4 11 12 13 -14 -15 -18 19 26 31 35 -36 38 -40 -41 -42 -43 -44 -45 46 -47 50 0
x 1 4 -5 8 10 -12 -13 -14 17 -20 -21 23 -24 -25 26 27 -28 -29 -32 -35 38 40 -41 -43 45 46 -49 0
x -3 4 6 7 8 9 -11 -12 13 -16 18 21 24 -26 29 -32 35 37 38 -39 -41 43 -46 47 -48 0
x 1 3 5 6 8 10 11 12 -13 15 -16 -18 -19 24 26 28 -29 30 34 -36 -37 39 47 49 50 0
x -1 -2 3 4 -5 6 -9 12 18 21 24 26 -27 -28 32 -33 34 -38 39 -40 42 43 44 -46 -47 -48 -49 0
x 2 -3 4 -5 -10 11 -12 -13 15 18 21 22 24 -25 -26 27 33 -34 -36 38 41 -46 -47 48 50 0
x -5 -8 9 10 -11 -13 14 15 -16 21 23 -29 -32 -33 -36 38 -49 50 0
x -1 -2 3 -6 -8 -12 -13 14 -19 -21 -22 -24 25 26 -28 -29 30 31 -32 -34 36 -37 39 -40 -41 -42 -48 49 0
x 1 2 -3 4 -6 -8 10 11 12 19 -22 23 27 28 29 -33 -37 -41 -42 -44 45 -46 47 -50 0
x -1 2 -8 -11 12 -14 -15 16 -19 -20 -21 -22 23 -27 -29 30 31 -32 36 -39 41 42 -46 48 -49 -50 0
